(benchmark gametime
:status unknown
:logic QF_AUFBV
:extrafuns ((gtINDEX90  BitVec[32]))
:extrafuns ((gtFIELD__bitsForTID0__gtAGG____anonstruct_D_Work_4  Array[32:32]))
:extrafuns ((gtINDEX91  BitVec[32]))
:extrafuns ((gtAGG__rtDWork  BitVec[32]))
:extrafuns ((gtINDEX88  BitVec[32]))
:extrafuns ((gtINDEX89  BitVec[32]))
:extrafuns ((gtINDEX86  BitVec[32]))
:extrafuns ((gtINDEX87  BitVec[32]))
:extrafuns ((gtINDEX84  BitVec[32]))
:extrafuns ((gtINDEX85  BitVec[32]))
:extrafuns ((gtINDEX83  BitVec[32]))
:extrafuns ((gtINDEX82  BitVec[32]))
:extrafuns ((gtINDEX81  BitVec[32]))
:extrafuns ((gtINDEX80  BitVec[32]))
:extrafuns ((gtINDEX78  BitVec[32]))
:extrafuns ((gtINDEX79  BitVec[32]))
:extrafuns ((gtINDEX76  BitVec[32]))
:extrafuns ((gtINDEX77  BitVec[32]))
:extrafuns ((gtINDEX74  BitVec[32]))
:extrafuns ((gtINDEX75  BitVec[32]))
:extrafuns ((gtINDEX72  BitVec[32]))
:extrafuns ((gtINDEX73  BitVec[32]))
:extrafuns ((gtINDEX70  BitVec[32]))
:extrafuns ((gtINDEX71  BitVec[32]))
:extrafuns ((gtINDEX68  BitVec[32]))
:extrafuns ((gtINDEX69  BitVec[32]))
:extrafuns ((gtINDEX66  BitVec[32]))
:extrafuns ((gtINDEX67  BitVec[32]))
:extrafuns ((gtINDEX64  BitVec[32]))
:extrafuns ((gtINDEX65  BitVec[32]))
:extrafuns ((gtINDEX63  BitVec[32]))
:extrafuns ((gtINDEX61  BitVec[32]))
:extrafuns ((gtINDEX62  BitVec[32]))
:extrafuns ((gtINDEX59  BitVec[32]))
:extrafuns ((gtINDEX60  BitVec[32]))
:extrafuns ((gtINDEX57  BitVec[32]))
:extrafuns ((gtINDEX58  BitVec[32]))
:extrafuns ((gtINDEX55  BitVec[32]))
:extrafuns ((gtINDEX56  BitVec[32]))
:extrafuns ((gtINDEX54  BitVec[32]))
:extrafuns ((gtINDEX52  BitVec[32]))
:extrafuns ((gtINDEX53  BitVec[32]))
:extrafuns ((gtINDEX50  BitVec[32]))
:extrafuns ((gtINDEX51  BitVec[32]))
:extrafuns ((gtINDEX49  BitVec[32]))
:extrafuns ((gtINDEX47  BitVec[32]))
:extrafuns ((gtINDEX48  BitVec[32]))
:extrafuns ((gtINDEX46  BitVec[32]))
:extrafuns ((gtINDEX44  BitVec[32]))
:extrafuns ((gtINDEX45  BitVec[32]))
:extrafuns ((gtINDEX42  BitVec[32]))
:extrafuns ((gtINDEX43  BitVec[32]))
:extrafuns ((gtINDEX41  BitVec[32]))
:extrafuns ((gtINDEX40  BitVec[32]))
:extrafuns ((gtINDEX39  BitVec[32]))
:extrafuns ((gtINDEX38  BitVec[32]))
:extrafuns ((gtINDEX37  BitVec[32]))
:extrafuns ((gtINDEX36  BitVec[32]))
:extrafuns ((gtINDEX34  BitVec[32]))
:extrafuns ((gtINDEX35  BitVec[32]))
:extrafuns ((gtINDEX32  BitVec[32]))
:extrafuns ((gtINDEX33  BitVec[32]))
:extrafuns ((gtINDEX30  BitVec[32]))
:extrafuns ((gtINDEX31  BitVec[32]))
:extrafuns ((gtINDEX28  BitVec[32]))
:extrafuns ((gtINDEX29  BitVec[32]))
:extrafuns ((gtINDEX26  BitVec[32]))
:extrafuns ((gtINDEX27  BitVec[32]))
:extrafuns ((gtINDEX24  BitVec[32]))
:extrafuns ((gtINDEX25  BitVec[32]))
:extrafuns ((gtINDEX22  BitVec[32]))
:extrafuns ((gtINDEX23  BitVec[32]))
:extrafuns ((gtINDEX20  BitVec[32]))
:extrafuns ((gtINDEX21  BitVec[32]))
:extrafuns ((gtINDEX19  BitVec[32]))
:extrafuns ((gtINDEX17  BitVec[32]))
:extrafuns ((gtINDEX18  BitVec[32]))
:extrafuns ((gtINDEX15  BitVec[32]))
:extrafuns ((gtINDEX16  BitVec[32]))
:extrafuns ((gtINDEX13  BitVec[32]))
:extrafuns ((gtINDEX14  BitVec[32]))
:extrafuns ((gtINDEX12  BitVec[32]))
:extrafuns ((gtINDEX10  BitVec[32]))
:extrafuns ((gtINDEX11  BitVec[32]))
:extrafuns ((gtINDEX9  BitVec[32]))
:extrafuns ((gtINDEX8  BitVec[32]))
:extrafuns ((gtINDEX6  BitVec[32]))
:extrafuns ((gtINDEX7  BitVec[32]))
:extrafuns ((gtINDEX4  BitVec[32]))
:extrafuns ((gtINDEX5  BitVec[32]))
:extrafuns ((gtINDEX2  BitVec[32]))
:extrafuns ((gtINDEX3  BitVec[32]))
:extrafuns ((gtINDEX0  BitVec[32]))
:extrafuns ((gtINDEX1  BitVec[32]))
:extrafuns ((gtFIELD__is_Eng__gtAGG____anonstruct_bitsForTID0_5_1_  Array[32:1]))
:extrafuns ((gtFIELD__is_Eng__gtAGG____anonstruct_bitsForTID0_5_2_  Array[32:1]))
:extrafuns ((sf_previousEvent_1_  BitVec[32]))
:extrafuns ((sfEvent__2_  BitVec[32]))
:extrafuns ((gtFIELD__is_Eng__gtAGG____anonstruct_bitsForTID0_5  Array[32:1]))
:extrafuns ((gtFIELD__sent__gtAGG____anonstruct_D_Work_4_1_  Array[32:32]))
:extrafuns ((gtFIELD__sent__gtAGG____anonstruct_D_Work_4_2_  Array[32:32]))
:extrafuns ((gtFIELD__is_active_Eng__gtAGG____anonstruct_bitsForTID0_5  Array[32:1]))
:extrafuns ((gtFIELD__is_PURI__gtAGG____anonstruct_bitsForTID0_5_1_  Array[32:2]))
:extrafuns ((gtFIELD__is_PURI__gtAGG____anonstruct_bitsForTID0_5_2_  Array[32:2]))
:extrafuns ((gtFIELD__is_active_PURI__gtAGG____anonstruct_bitsForTID0_5  Array[32:1]))
:extrafuns ((sfEvent__1_  BitVec[32]))
:extrafuns ((gtFIELD__is_PVRP__gtAGG____anonstruct_bitsForTID0_5  Array[32:2]))
:extrafuns ((gtFIELD__is_active_PVRP__gtAGG____anonstruct_bitsForTID0_5  Array[32:1]))
:extrafuns ((gtFIELD__is_PPVARP__gtAGG____anonstruct_bitsForTID0_5  Array[32:2]))
:extrafuns ((gtFIELD__is_active_PPVARP__gtAGG____anonstruct_bitsForTID0_5  Array[32:1]))
:extrafuns ((gtFIELD__is_PLRI__gtAGG____anonstruct_bitsForTID0_5_1_  Array[32:2]))
:extrafuns ((gtFIELD__is_PLRI__gtAGG____anonstruct_bitsForTID0_5_2_  Array[32:2]))
:extrafuns ((gtFIELD__is_active_PLRI__gtAGG____anonstruct_bitsForTID0_5  Array[32:1]))
:extrafuns ((gtFIELD__temporalCounter_i1__gtAGG____anonstruct_D_Work_4  Array[32:32]))
:extrafuns ((gtFIELD__temporalCounter_i1__gtAGG____anonstruct_D_Work_4_1_  Array[32:32]))
:extrafuns ((gtFIELD__is_PAVI__gtAGG____anonstruct_bitsForTID0_5  Array[32:3]))
:extrafuns ((gtFIELD__is_PAVI__gtAGG____anonstruct_bitsForTID0_5_1_  Array[32:3]))
:extrafuns ((gtFIELD__n_t__gtAGG____anonstruct_D_Work_4  Array[32:32]))
:extrafuns ((gtFIELD__n_t__gtAGG____anonstruct_D_Work_4_1_  Array[32:32]))
:extrafuns ((gtFIELD__is_active_PAVI__gtAGG____anonstruct_bitsForTID0_5  Array[32:1]))
:extrafuns ((sfEvent_  BitVec[32]))
:extrafuns ((gtFIELD__sent__gtAGG____anonstruct_D_Work_4  Array[32:32]))
:extrafuns ((gtFIELD__is_PURI__gtAGG____anonstruct_bitsForTID0_5  Array[32:2]))
:extrafuns ((gtFIELD__temporalCounter_i2__gtAGG____anonstruct_D_Work_4  Array[32:32]))
:extrafuns ((gtFIELD__temporalCounter_i2__gtAGG____anonstruct_D_Work_4_1_  Array[32:32]))
:extrafuns ((gtFIELD__is_PLRI__gtAGG____anonstruct_bitsForTID0_5  Array[32:2]))
:extrafuns ((gtFIELD__n_t_n__gtAGG____anonstruct_D_Work_4  Array[32:32]))
:extrafuns ((gtFIELD__n_t_n__gtAGG____anonstruct_D_Work_4_1_  Array[32:32]))
:extrapreds ((constraint164 ))
:extrapreds ((constraint163 ))
:extrapreds ((constraint162 ))
:extrapreds ((constraint161 ))
:extrapreds ((constraint160 ))
:extrapreds ((constraint159 ))
:extrapreds ((constraint158 ))
:extrapreds ((constraint157 ))
:extrapreds ((constraint156 ))
:extrapreds ((constraint155 ))
:extrapreds ((constraint154 ))
:extrapreds ((constraint153 ))
:extrapreds ((constraint152 ))
:extrapreds ((constraint151 ))
:extrapreds ((constraint150 ))
:extrapreds ((constraint149 ))
:extrapreds ((constraint148 ))
:extrapreds ((constraint147 ))
:extrapreds ((constraint146 ))
:extrapreds ((constraint145 ))
:extrapreds ((constraint144 ))
:extrapreds ((constraint143 ))
:extrapreds ((constraint142 ))
:extrapreds ((constraint141 ))
:extrapreds ((constraint140 ))
:extrapreds ((constraint139 ))
:extrapreds ((constraint138 ))
:extrapreds ((constraint137 ))
:extrapreds ((constraint136 ))
:extrapreds ((constraint135 ))
:extrapreds ((constraint134 ))
:extrapreds ((constraint133 ))
:extrapreds ((constraint132 ))
:extrapreds ((constraint131 ))
:extrapreds ((constraint130 ))
:extrapreds ((constraint129 ))
:extrapreds ((constraint128 ))
:extrapreds ((constraint127 ))
:extrapreds ((constraint126 ))
:extrapreds ((constraint125 ))
:extrapreds ((constraint124 ))
:extrapreds ((constraint123 ))
:extrapreds ((constraint122 ))
:extrapreds ((constraint121 ))
:extrapreds ((constraint120 ))
:extrapreds ((constraint119 ))
:extrapreds ((constraint118 ))
:extrapreds ((constraint117 ))
:extrapreds ((constraint116 ))
:extrapreds ((constraint115 ))
:extrapreds ((constraint114 ))
:extrapreds ((constraint113 ))
:extrapreds ((constraint112 ))
:extrapreds ((constraint111 ))
:extrapreds ((constraint110 ))
:extrapreds ((constraint109 ))
:extrapreds ((constraint108 ))
:extrapreds ((constraint107 ))
:extrapreds ((constraint106 ))
:extrapreds ((constraint105 ))
:extrapreds ((constraint104 ))
:extrapreds ((constraint103 ))
:extrapreds ((constraint102 ))
:extrapreds ((constraint101 ))
:extrapreds ((constraint100 ))
:extrapreds ((constraint99 ))
:extrapreds ((constraint98 ))
:extrapreds ((constraint97 ))
:extrapreds ((constraint96 ))
:extrapreds ((constraint95 ))
:extrapreds ((constraint94 ))
:extrapreds ((constraint93 ))
:extrapreds ((constraint92 ))
:extrapreds ((constraint91 ))
:extrapreds ((constraint90 ))
:extrapreds ((constraint89 ))
:extrapreds ((constraint88 ))
:extrapreds ((constraint87 ))
:extrapreds ((constraint86 ))
:extrapreds ((constraint85 ))
:extrapreds ((constraint84 ))
:extrapreds ((constraint83 ))
:extrapreds ((constraint82 ))
:extrapreds ((constraint81 ))
:extrapreds ((constraint80 ))
:extrapreds ((constraint79 ))
:extrapreds ((constraint78 ))
:extrapreds ((constraint77 ))
:extrapreds ((constraint76 ))
:extrapreds ((constraint75 ))
:extrapreds ((constraint74 ))
:extrapreds ((constraint73 ))
:extrapreds ((constraint72 ))
:extrapreds ((constraint71 ))
:extrapreds ((constraint70 ))
:extrapreds ((constraint69 ))
:extrapreds ((constraint68 ))
:extrapreds ((constraint67 ))
:extrapreds ((constraint66 ))
:extrapreds ((constraint65 ))
:extrapreds ((constraint64 ))
:extrapreds ((constraint63 ))
:extrapreds ((constraint62 ))
:extrapreds ((constraint61 ))
:extrapreds ((constraint60 ))
:extrapreds ((constraint59 ))
:extrapreds ((constraint58 ))
:extrapreds ((constraint57 ))
:extrapreds ((constraint56 ))
:extrapreds ((constraint55 ))
:extrapreds ((constraint54 ))
:extrapreds ((constraint53 ))
:extrapreds ((constraint52 ))
:extrapreds ((constraint51 ))
:extrapreds ((constraint50 ))
:extrapreds ((constraint49 ))
:extrapreds ((constraint48 ))
:extrapreds ((constraint47 ))
:extrapreds ((constraint46 ))
:extrapreds ((constraint45 ))
:extrapreds ((constraint44 ))
:extrapreds ((constraint43 ))
:extrapreds ((constraint42 ))
:extrapreds ((constraint41 ))
:extrapreds ((constraint40 ))
:extrapreds ((constraint39 ))
:extrapreds ((constraint38 ))
:extrapreds ((constraint37 ))
:extrapreds ((constraint36 ))
:extrapreds ((constraint35 ))
:extrapreds ((constraint34 ))
:extrapreds ((constraint33 ))
:extrapreds ((constraint32 ))
:extrapreds ((constraint31 ))
:extrapreds ((constraint30 ))
:extrapreds ((constraint29 ))
:extrapreds ((constraint28 ))
:extrapreds ((constraint27 ))
:extrapreds ((constraint26 ))
:extrapreds ((constraint25 ))
:extrapreds ((constraint24 ))
:extrapreds ((constraint23 ))
:extrapreds ((constraint22 ))
:extrapreds ((constraint21 ))
:extrapreds ((constraint20 ))
:extrapreds ((constraint19 ))
:extrapreds ((constraint18 ))
:extrapreds ((constraint17 ))
:extrapreds ((constraint16 ))
:extrapreds ((constraint15 ))
:extrapreds ((constraint14 ))
:extrapreds ((constraint13 ))
:extrapreds ((constraint12 ))
:extrapreds ((constraint11 ))
:extrapreds ((constraint10 ))
:extrapreds ((constraint9 ))
:extrapreds ((constraint8 ))
:extrapreds ((constraint7 ))
:extrapreds ((constraint6 ))
:extrapreds ((constraint5 ))
:extrapreds ((constraint4 ))
:extrapreds ((constraint3 ))
:extrapreds ((constraint2 ))
:extrapreds ((constraint1 ))
:extrapreds ((constraint0 ))
:formula
(flet ($x817 (and constraint0 constraint1 constraint2 constraint3 constraint4 constraint5 constraint6 constraint7 constraint8 constraint9 constraint10 constraint11 constraint12 constraint13 constraint14 constraint15 constraint16 constraint17 constraint18 constraint19 constraint20 constraint21 constraint22 constraint23 constraint24 constraint25 constraint26 constraint27 constraint28 constraint29 constraint30 constraint31 constraint32 constraint33 constraint34 constraint35 constraint36 constraint37 constraint38 constraint39 constraint40 constraint41 constraint42 constraint43 constraint44 constraint45 constraint46 constraint47 constraint48 constraint49 constraint50 constraint51 constraint52 constraint53 constraint54 constraint55 constraint56 constraint57 constraint58 constraint59 constraint60 constraint61 constraint62 constraint63 constraint64 constraint65 constraint66 constraint67 constraint68 constraint69 constraint70 constraint71 constraint72 constraint73 constraint74 constraint75 constraint76 constraint77 constraint78 constraint79 constraint80 constraint81 constraint82 constraint83 constraint84 constraint85 constraint86 constraint87 constraint88 constraint89 constraint90 constraint91 constraint92 constraint93 constraint94 constraint95 constraint96 constraint97 constraint98 constraint99 constraint100 constraint101 constraint102 constraint103 constraint104 constraint105 constraint106 constraint107 constraint108 constraint109 constraint110 constraint111 constraint112 constraint113 constraint114 constraint115 constraint116 constraint117 constraint118 constraint119 constraint120 constraint121 constraint122 constraint123 constraint124 constraint125 constraint126 constraint127 constraint128 constraint129 constraint130 constraint131 constraint132 constraint133 constraint134 constraint135 constraint136 constraint137 constraint138 constraint139 constraint140 constraint141 constraint142 constraint143 constraint144 constraint145 constraint146 constraint147 constraint148 constraint149 constraint150 constraint151 constraint152 constraint153 constraint154 constraint155 constraint156 constraint157 constraint158 constraint159 constraint160 constraint161 constraint162 constraint163 constraint164))
(flet ($x485 (= gtINDEX91 (select gtFIELD__bitsForTID0__gtAGG____anonstruct_D_Work_4 gtINDEX90)))
(flet ($x481 (= gtINDEX89 (select gtFIELD__bitsForTID0__gtAGG____anonstruct_D_Work_4 gtINDEX88)))
(flet ($x477 (= gtINDEX87 (select gtFIELD__bitsForTID0__gtAGG____anonstruct_D_Work_4 gtINDEX86)))
(flet ($x473 (= gtINDEX85 (select gtFIELD__bitsForTID0__gtAGG____anonstruct_D_Work_4 gtINDEX84)))
(flet ($x465 (= gtINDEX79 (select gtFIELD__bitsForTID0__gtAGG____anonstruct_D_Work_4 gtINDEX78)))
(flet ($x461 (= gtINDEX77 (select gtFIELD__bitsForTID0__gtAGG____anonstruct_D_Work_4 gtINDEX76)))
(flet ($x457 (= gtINDEX75 (select gtFIELD__bitsForTID0__gtAGG____anonstruct_D_Work_4 gtINDEX74)))
(flet ($x453 (= gtINDEX73 (select gtFIELD__bitsForTID0__gtAGG____anonstruct_D_Work_4 gtINDEX72)))
(flet ($x449 (= gtINDEX71 (select gtFIELD__bitsForTID0__gtAGG____anonstruct_D_Work_4 gtINDEX70)))
(flet ($x445 (= gtINDEX69 (select gtFIELD__bitsForTID0__gtAGG____anonstruct_D_Work_4 gtINDEX68)))
(flet ($x441 (= gtINDEX67 (select gtFIELD__bitsForTID0__gtAGG____anonstruct_D_Work_4 gtINDEX66)))
(flet ($x437 (= gtINDEX65 (select gtFIELD__bitsForTID0__gtAGG____anonstruct_D_Work_4 gtINDEX64)))
(flet ($x432 (= gtINDEX62 (select gtFIELD__bitsForTID0__gtAGG____anonstruct_D_Work_4 gtINDEX61)))
(flet ($x428 (= gtINDEX60 (select gtFIELD__bitsForTID0__gtAGG____anonstruct_D_Work_4 gtINDEX59)))
(flet ($x424 (= gtINDEX58 (select gtFIELD__bitsForTID0__gtAGG____anonstruct_D_Work_4 gtINDEX57)))
(flet ($x420 (= gtINDEX56 (select gtFIELD__bitsForTID0__gtAGG____anonstruct_D_Work_4 gtINDEX55)))
(flet ($x415 (= gtINDEX53 (select gtFIELD__bitsForTID0__gtAGG____anonstruct_D_Work_4 gtINDEX52)))
(flet ($x411 (= gtINDEX51 (select gtFIELD__bitsForTID0__gtAGG____anonstruct_D_Work_4 gtINDEX50)))
(flet ($x406 (= gtINDEX48 (select gtFIELD__bitsForTID0__gtAGG____anonstruct_D_Work_4 gtINDEX47)))
(flet ($x401 (= gtINDEX45 (select gtFIELD__bitsForTID0__gtAGG____anonstruct_D_Work_4 gtINDEX44)))
(flet ($x397 (= gtINDEX43 (select gtFIELD__bitsForTID0__gtAGG____anonstruct_D_Work_4 gtINDEX42)))
(flet ($x387 (= gtINDEX35 (select gtFIELD__bitsForTID0__gtAGG____anonstruct_D_Work_4 gtINDEX34)))
(flet ($x383 (= gtINDEX33 (select gtFIELD__bitsForTID0__gtAGG____anonstruct_D_Work_4 gtINDEX32)))
(flet ($x379 (= gtINDEX31 (select gtFIELD__bitsForTID0__gtAGG____anonstruct_D_Work_4 gtINDEX30)))
(flet ($x375 (= gtINDEX29 (select gtFIELD__bitsForTID0__gtAGG____anonstruct_D_Work_4 gtINDEX28)))
(flet ($x371 (= gtINDEX27 (select gtFIELD__bitsForTID0__gtAGG____anonstruct_D_Work_4 gtINDEX26)))
(flet ($x367 (= gtINDEX25 (select gtFIELD__bitsForTID0__gtAGG____anonstruct_D_Work_4 gtINDEX24)))
(flet ($x363 (= gtINDEX23 (select gtFIELD__bitsForTID0__gtAGG____anonstruct_D_Work_4 gtINDEX22)))
(flet ($x359 (= gtINDEX21 (select gtFIELD__bitsForTID0__gtAGG____anonstruct_D_Work_4 gtINDEX20)))
(flet ($x354 (= gtINDEX18 (select gtFIELD__bitsForTID0__gtAGG____anonstruct_D_Work_4 gtINDEX17)))
(flet ($x350 (= gtINDEX16 (select gtFIELD__bitsForTID0__gtAGG____anonstruct_D_Work_4 gtINDEX15)))
(flet ($x346 (= gtINDEX14 (select gtFIELD__bitsForTID0__gtAGG____anonstruct_D_Work_4 gtINDEX13)))
(flet ($x341 (= gtINDEX11 (select gtFIELD__bitsForTID0__gtAGG____anonstruct_D_Work_4 gtINDEX10)))
(flet ($x335 (= gtINDEX7 (select gtFIELD__bitsForTID0__gtAGG____anonstruct_D_Work_4 gtINDEX6)))
(flet ($x331 (= gtINDEX5 (select gtFIELD__bitsForTID0__gtAGG____anonstruct_D_Work_4 gtINDEX4)))
(flet ($x327 (= gtINDEX3 (select gtFIELD__bitsForTID0__gtAGG____anonstruct_D_Work_4 gtINDEX2)))
(flet ($x323 (= gtINDEX1 (select gtFIELD__bitsForTID0__gtAGG____anonstruct_D_Work_4 gtINDEX0)))
(let (?x307 (extract[0:0] bv1[32]))
(let (?x317 (store gtFIELD__is_Eng__gtAGG____anonstruct_bitsForTID0_5_1_ gtINDEX91 ?x307))
(flet ($x631 (iff constraint72 (= gtFIELD__is_Eng__gtAGG____anonstruct_bitsForTID0_5_2_ ?x317)))
(let (?x313 (select gtFIELD__is_Eng__gtAGG____anonstruct_bitsForTID0_5_1_ gtINDEX89))
(let (?x308 (store gtFIELD__is_Eng__gtAGG____anonstruct_bitsForTID0_5 gtINDEX87 ?x307))
(flet ($x625 (iff constraint69 (= gtFIELD__is_Eng__gtAGG____anonstruct_bitsForTID0_5_1_ ?x308)))
(let (?x304 (zero_extend[31] (select gtFIELD__is_Eng__gtAGG____anonstruct_bitsForTID0_5 gtINDEX85)))
(let (?x300 (store gtFIELD__sent__gtAGG____anonstruct_D_Work_4_1_ gtINDEX83 bv0[32]))
(flet ($x621 (iff constraint67 (= gtFIELD__sent__gtAGG____anonstruct_D_Work_4_2_ ?x300)))
(let (?x171 (bvmul bv4294967295[32] bv1[32]))
(flet ($x298 (= (select gtFIELD__sent__gtAGG____anonstruct_D_Work_4_1_ gtINDEX82) ?x171))
(flet ($x294 (= (select gtFIELD__sent__gtAGG____anonstruct_D_Work_4_1_ gtINDEX81) bv9[32]))
(flet ($x290 (= (select gtFIELD__sent__gtAGG____anonstruct_D_Work_4_1_ gtINDEX80) bv4[32]))
(let (?x286 (zero_extend[31] (select gtFIELD__is_Eng__gtAGG____anonstruct_bitsForTID0_5 gtINDEX79)))
(let (?x280 (select gtFIELD__is_active_Eng__gtAGG____anonstruct_bitsForTID0_5 gtINDEX77))
(let (?x147 (extract[1:0] bv0[32]))
(let (?x277 (store gtFIELD__is_PURI__gtAGG____anonstruct_bitsForTID0_5_1_ gtINDEX75 ?x147))
(flet ($x609 (iff constraint61 (= gtFIELD__is_PURI__gtAGG____anonstruct_bitsForTID0_5_2_ ?x277)))
(let (?x272 (select gtFIELD__is_PURI__gtAGG____anonstruct_bitsForTID0_5_1_ gtINDEX73))
(let (?x267 (select gtFIELD__is_PURI__gtAGG____anonstruct_bitsForTID0_5_1_ gtINDEX71))
(let (?x262 (select gtFIELD__is_active_PURI__gtAGG____anonstruct_bitsForTID0_5 gtINDEX69))
(let (?x256 (select gtFIELD__is_PVRP__gtAGG____anonstruct_bitsForTID0_5 gtINDEX67))
(let (?x251 (select gtFIELD__is_active_PVRP__gtAGG____anonstruct_bitsForTID0_5 gtINDEX65))
(flet ($x248 (= (select gtFIELD__sent__gtAGG____anonstruct_D_Work_4_1_ gtINDEX63) bv0[32]))
(let (?x243 (select gtFIELD__is_PPVARP__gtAGG____anonstruct_bitsForTID0_5 gtINDEX62))
(let (?x238 (select gtFIELD__is_PPVARP__gtAGG____anonstruct_bitsForTID0_5 gtINDEX60))
(let (?x233 (select gtFIELD__is_active_PPVARP__gtAGG____anonstruct_bitsForTID0_5 gtINDEX58))
(let (?x230 (store gtFIELD__is_PLRI__gtAGG____anonstruct_bitsForTID0_5_1_ gtINDEX56 (extract[1:0] bv2[32])))
(flet ($x585 (iff constraint49 (= gtFIELD__is_PLRI__gtAGG____anonstruct_bitsForTID0_5_2_ ?x230)))
(flet ($x222 (= (select gtFIELD__sent__gtAGG____anonstruct_D_Work_4_1_ gtINDEX54) bv0[32]))
(let (?x217 (select gtFIELD__is_PLRI__gtAGG____anonstruct_bitsForTID0_5_1_ gtINDEX53))
(let (?x212 (select gtFIELD__is_active_PLRI__gtAGG____anonstruct_bitsForTID0_5 gtINDEX51))
(let (?x209 (store gtFIELD__temporalCounter_i1__gtAGG____anonstruct_D_Work_4 gtINDEX49 bv0[32]))
(flet ($x571 (iff constraint42 (= gtFIELD__temporalCounter_i1__gtAGG____anonstruct_D_Work_4_1_ ?x209)))
(let (?x206 (store gtFIELD__is_PAVI__gtAGG____anonstruct_bitsForTID0_5 gtINDEX48 (extract[2:0] bv2[32])))
(flet ($x569 (iff constraint41 (= gtFIELD__is_PAVI__gtAGG____anonstruct_bitsForTID0_5_1_ ?x206)))
(flet ($x203 (= gtFIELD__n_t__gtAGG____anonstruct_D_Work_4_1_ (store gtFIELD__n_t__gtAGG____anonstruct_D_Work_4 gtINDEX46 bv0[32])))
(let (?x196 (select gtFIELD__is_PAVI__gtAGG____anonstruct_bitsForTID0_5 gtINDEX45))
(let (?x191 (select gtFIELD__is_active_PAVI__gtAGG____anonstruct_bitsForTID0_5 gtINDEX43))
(flet ($x183 (= gtFIELD__sent__gtAGG____anonstruct_D_Work_4_1_ (store gtFIELD__sent__gtAGG____anonstruct_D_Work_4 gtINDEX41 ?x171)))
(flet ($x180 (= (select gtFIELD__sent__gtAGG____anonstruct_D_Work_4 gtINDEX40) bv2[32]))
(flet ($x176 (= (select gtFIELD__sent__gtAGG____anonstruct_D_Work_4 gtINDEX39) bv1[32]))
(flet ($x172 (= (select gtFIELD__sent__gtAGG____anonstruct_D_Work_4 gtINDEX38) ?x171))
(flet ($x166 (= (select gtFIELD__sent__gtAGG____anonstruct_D_Work_4 gtINDEX37) bv9[32]))
(flet ($x161 (= (select gtFIELD__sent__gtAGG____anonstruct_D_Work_4 gtINDEX36) bv4[32]))
(let (?x157 (zero_extend[31] (select gtFIELD__is_Eng__gtAGG____anonstruct_bitsForTID0_5 gtINDEX35)))
(let (?x151 (select gtFIELD__is_active_Eng__gtAGG____anonstruct_bitsForTID0_5 gtINDEX33))
(let (?x148 (store gtFIELD__is_PURI__gtAGG____anonstruct_bitsForTID0_5 gtINDEX31 ?x147))
(flet ($x535 (iff constraint24 (= gtFIELD__is_PURI__gtAGG____anonstruct_bitsForTID0_5_1_ ?x148)))
(let (?x142 (select gtFIELD__is_PURI__gtAGG____anonstruct_bitsForTID0_5 gtINDEX29))
(let (?x137 (select gtFIELD__is_PURI__gtAGG____anonstruct_bitsForTID0_5 gtINDEX27))
(let (?x132 (select gtFIELD__is_active_PURI__gtAGG____anonstruct_bitsForTID0_5 gtINDEX25))
(let (?x126 (select gtFIELD__is_PVRP__gtAGG____anonstruct_bitsForTID0_5 gtINDEX23))
(let (?x121 (select gtFIELD__is_active_PVRP__gtAGG____anonstruct_bitsForTID0_5 gtINDEX21))
(flet ($x118 (= (select gtFIELD__sent__gtAGG____anonstruct_D_Work_4 gtINDEX19) bv0[32]))
(let (?x113 (select gtFIELD__is_PPVARP__gtAGG____anonstruct_bitsForTID0_5 gtINDEX18))
(let (?x108 (select gtFIELD__is_PPVARP__gtAGG____anonstruct_bitsForTID0_5 gtINDEX16))
(let (?x103 (select gtFIELD__is_active_PPVARP__gtAGG____anonstruct_bitsForTID0_5 gtINDEX14))
(let (?x100 (store gtFIELD__temporalCounter_i2__gtAGG____anonstruct_D_Work_4 gtINDEX12 bv0[32]))
(flet ($x511 (iff constraint12 (= gtFIELD__temporalCounter_i2__gtAGG____anonstruct_D_Work_4_1_ ?x100)))
(let (?x97 (store gtFIELD__is_PLRI__gtAGG____anonstruct_bitsForTID0_5 gtINDEX11 (extract[1:0] bv1[32])))
(flet ($x509 (iff constraint11 (= gtFIELD__is_PLRI__gtAGG____anonstruct_bitsForTID0_5_1_ ?x97)))
(flet ($x94 (= gtFIELD__n_t_n__gtAGG____anonstruct_D_Work_4_1_ (store gtFIELD__n_t_n__gtAGG____anonstruct_D_Work_4 gtINDEX9 bv0[32])))
(flet ($x85 (= (select gtFIELD__sent__gtAGG____anonstruct_D_Work_4 gtINDEX8) bv0[32]))
(let (?x81 (zero_extend[30] (select gtFIELD__is_PLRI__gtAGG____anonstruct_bitsForTID0_5 gtINDEX7)))
(let (?x75 (select gtFIELD__is_active_PLRI__gtAGG____anonstruct_bitsForTID0_5 gtINDEX5))
(let (?x65 (zero_extend[29] (select gtFIELD__is_PAVI__gtAGG____anonstruct_bitsForTID0_5 gtINDEX3)))
(let (?x58 (select gtFIELD__is_active_PAVI__gtAGG____anonstruct_bitsForTID0_5 gtINDEX1))
(flet ($x816 (and (iff constraint0 (not (= sfEvent_ bv8[32]))) (iff constraint1 (not (= (zero_extend[31] ?x58) bv0[32]))) (iff constraint2 (= ?x65 bv1[32])) (iff constraint3 (not (= sfEvent_ bv2[32]))) (iff constraint4 (not (= sfEvent_ bv3[32]))) (iff constraint5 (not (= (zero_extend[31] ?x75) bv0[32]))) (iff constraint6 (= ?x81 bv1[32])) (iff constraint7 (not $x85)) (iff constraint8 (not (= sfEvent_ bv4[32]))) (iff constraint9 (= sfEvent_ bv5[32])) (iff constraint10 $x94) $x509 $x511 (iff constraint13 (not (= (zero_extend[31] ?x103) bv0[32]))) (iff constraint14 (not (= (zero_extend[30] ?x108) bv1[32]))) (iff constraint15 (= (zero_extend[30] ?x113) bv2[32])) (iff constraint16 (not $x118)) (iff constraint17 (not (= (zero_extend[31] ?x121) bv0[32]))) (iff constraint18 (= (zero_extend[30] ?x126) bv1[32])) (iff constraint19 (not (= sfEvent_ bv0[32]))) (iff constraint20 (not (= sfEvent_ bv4[32]))) (iff constraint21 (not (= (zero_extend[31] ?x132) bv0[32]))) (iff constraint22 (not (= (zero_extend[30] ?x137) bv1[32]))) (iff constraint23 (not (= (zero_extend[30] ?x142) bv2[32]))) $x535 (iff constraint25 (not (= (zero_extend[31] ?x151) bv0[32]))) (iff constraint26 (= ?x157 bv1[32])) (iff constraint27 (not $x161)) (iff constraint28 (not $x166)) (iff constraint29 (not $x172)) (iff constraint30 (not $x176)) (iff constraint31 $x180) (iff constraint32 $x183) (iff constraint33 (= sf_previousEvent_1_ sfEvent_)) (iff constraint34 (= sfEvent__1_ bv3[32])) (iff constraint35 (not (= sfEvent__1_ bv8[32]))) (iff constraint36 (not (= (zero_extend[31] ?x191) bv0[32]))) (iff constraint37 (= (zero_extend[29] ?x196) bv1[32])) (iff constraint38 (not (= sfEvent__1_ bv2[32]))) (iff constraint39 (= sfEvent__1_ bv3[32])) (iff constraint40 $x203) $x569 $x571 (iff constraint43 (not (= (zero_extend[31] ?x212) bv0[32]))) (iff constraint44 (= (zero_extend[30] ?x217) bv1[32])) (iff constraint45 (not $x222)) (iff constraint46 (not (= sfEvent__1_ bv4[32]))) (iff constraint47 (not (= sfEvent__1_ bv5[32]))) (iff constraint48 (= sfEvent__1_ bv3[32])) $x585 (iff constraint50 (not (= (zero_extend[31] ?x233) bv0[32]))) (iff constraint51 (not (= (zero_extend[30] ?x238) bv1[32]))) (iff constraint52 (= (zero_extend[30] ?x243) bv2[32])) (iff constraint53 (not $x248)) (iff constraint54 (not (= (zero_extend[31] ?x251) bv0[32]))) (iff constraint55 (= (zero_extend[30] ?x256) bv1[32])) (iff constraint56 (not (= sfEvent__1_ bv0[32]))) (iff constraint57 (not (= sfEvent__1_ bv4[32]))) (iff constraint58 (not (= (zero_extend[31] ?x262) bv0[32]))) (iff constraint59 (not (= (zero_extend[30] ?x267) bv1[32]))) (iff constraint60 (not (= (zero_extend[30] ?x272) bv2[32]))) $x609 (iff constraint62 (not (= (zero_extend[31] ?x280) bv0[32]))) (iff constraint63 (= ?x286 bv1[32])) (iff constraint64 (not $x290)) (iff constraint65 (not $x294)) (iff constraint66 $x298) $x621 (iff constraint68 (= ?x304 bv1[32])) $x625 (iff constraint70 (= sfEvent__2_ sf_previousEvent_1_)) (iff constraint71 (= (zero_extend[31] ?x313) bv1[32])) $x631 (iff constraint73 (= gtINDEX0 gtAGG__rtDWork)) (iff constraint74 $x323) (iff constraint75 (= gtINDEX2 gtAGG__rtDWork)) (iff constraint76 $x327) (iff constraint77 (= gtINDEX4 gtAGG__rtDWork)) (iff constraint78 $x331) (iff constraint79 (= gtINDEX6 gtAGG__rtDWork)) (iff constraint80 $x335) (iff constraint81 (= gtINDEX8 gtAGG__rtDWork)) (iff constraint82 (= gtINDEX9 gtAGG__rtDWork)) (iff constraint83 (= gtINDEX10 gtAGG__rtDWork)) (iff constraint84 $x341) (iff constraint85 (= gtINDEX12 gtAGG__rtDWork)) (iff constraint86 (= gtINDEX13 gtAGG__rtDWork)) (iff constraint87 $x346) (iff constraint88 (= gtINDEX15 gtAGG__rtDWork)) (iff constraint89 $x350) (iff constraint90 (= gtINDEX17 gtAGG__rtDWork)) (iff constraint91 $x354) (iff constraint92 (= gtINDEX19 gtAGG__rtDWork)) (iff constraint93 (= gtINDEX20 gtAGG__rtDWork)) (iff constraint94 $x359) (iff constraint95 (= gtINDEX22 gtAGG__rtDWork)) (iff constraint96 $x363) (iff constraint97 (= gtINDEX24 gtAGG__rtDWork)) (iff constraint98 $x367) (iff constraint99 (= gtINDEX26 gtAGG__rtDWork)) (iff constraint100 $x371) (iff constraint101 (= gtINDEX28 gtAGG__rtDWork)) (iff constraint102 $x375) (iff constraint103 (= gtINDEX30 gtAGG__rtDWork)) (iff constraint104 $x379) (iff constraint105 (= gtINDEX32 gtAGG__rtDWork)) (iff constraint106 $x383) (iff constraint107 (= gtINDEX34 gtAGG__rtDWork)) (iff constraint108 $x387) (iff constraint109 (= gtINDEX36 gtAGG__rtDWork)) (iff constraint110 (= gtINDEX37 gtAGG__rtDWork)) (iff constraint111 (= gtINDEX38 gtAGG__rtDWork)) (iff constraint112 (= gtINDEX39 gtAGG__rtDWork)) (iff constraint113 (= gtINDEX40 gtAGG__rtDWork)) (iff constraint114 (= gtINDEX41 gtAGG__rtDWork)) (iff constraint115 (= gtINDEX42 gtAGG__rtDWork)) (iff constraint116 $x397) (iff constraint117 (= gtINDEX44 gtAGG__rtDWork)) (iff constraint118 $x401) (iff constraint119 (= gtINDEX46 gtAGG__rtDWork)) (iff constraint120 (= gtINDEX47 gtAGG__rtDWork)) (iff constraint121 $x406) (iff constraint122 (= gtINDEX49 gtAGG__rtDWork)) (iff constraint123 (= gtINDEX50 gtAGG__rtDWork)) (iff constraint124 $x411) (iff constraint125 (= gtINDEX52 gtAGG__rtDWork)) (iff constraint126 $x415) (iff constraint127 (= gtINDEX54 gtAGG__rtDWork)) (iff constraint128 (= gtINDEX55 gtAGG__rtDWork)) (iff constraint129 $x420) (iff constraint130 (= gtINDEX57 gtAGG__rtDWork)) (iff constraint131 $x424) (iff constraint132 (= gtINDEX59 gtAGG__rtDWork)) (iff constraint133 $x428) (iff constraint134 (= gtINDEX61 gtAGG__rtDWork)) (iff constraint135 $x432) (iff constraint136 (= gtINDEX63 gtAGG__rtDWork)) (iff constraint137 (= gtINDEX64 gtAGG__rtDWork)) (iff constraint138 $x437) (iff constraint139 (= gtINDEX66 gtAGG__rtDWork)) (iff constraint140 $x441) (iff constraint141 (= gtINDEX68 gtAGG__rtDWork)) (iff constraint142 $x445) (iff constraint143 (= gtINDEX70 gtAGG__rtDWork)) (iff constraint144 $x449) (iff constraint145 (= gtINDEX72 gtAGG__rtDWork)) (iff constraint146 $x453) (iff constraint147 (= gtINDEX74 gtAGG__rtDWork)) (iff constraint148 $x457) (iff constraint149 (= gtINDEX76 gtAGG__rtDWork)) (iff constraint150 $x461) (iff constraint151 (= gtINDEX78 gtAGG__rtDWork)) (iff constraint152 $x465) (iff constraint153 (= gtINDEX80 gtAGG__rtDWork)) (iff constraint154 (= gtINDEX81 gtAGG__rtDWork)) (iff constraint155 (= gtINDEX82 gtAGG__rtDWork)) (iff constraint156 (= gtINDEX83 gtAGG__rtDWork)) (iff constraint157 (= gtINDEX84 gtAGG__rtDWork)) (iff constraint158 $x473) (iff constraint159 (= gtINDEX86 gtAGG__rtDWork)) (iff constraint160 $x477) (iff constraint161 (= gtINDEX88 gtAGG__rtDWork)) (iff constraint162 $x481) (iff constraint163 (= gtINDEX90 gtAGG__rtDWork)) (iff constraint164 $x485)))
(and $x816 $x817))))))))))))))))))))))))))))))))))))))))))))))))))))))))))))))))))))))))))))))))))))))))))))))))))))))))))))
)
